
Gurobi 11.0.3 (linux64) logging started Thu Apr 16 22:50:16 2026

Set parameter LogFile to value "tree/results/ctmc/ctmc_depth-3_run-2/Full MIP/LogFile_FullModel.txt"
Gurobi Optimizer version 11.0.3 build v11.0.3rc0 (linux64 - "CentOS Linux 7 (Core)")

CPU model: Intel(R) Xeon(R) Platinum 8260 CPU @ 2.40GHz, instruction set [SSE2|AVX|AVX2|AVX512]
Thread count: 96 physical cores, 192 logical processors, using up to 32 threads

Optimize a model with 88709 rows, 62111 columns and 1073381 nonzeros
Model fingerprint: 0x15b1c1d9
Model has 8832 general constraints
Variable types: 35514 continuous, 26597 integer (26597 binary)
Coefficient statistics:
  Matrix range     [9e-04, 1e+04]
  Objective range  [9e-04, 1e+04]
  Bounds range     [1e+00, 1e+03]
  RHS range        [1e-04, 2e+03]

User MIP start produced solution with objective -1.3905e+06 (0.31s)
Loaded user MIP start with objective -1.3905e+06

Presolve added 8824 rows and 26496 columns
Presolve time: 1.81s
Presolved: 97533 rows, 88607 columns, 1126421 nonzeros
Presolved model has 26496 SOS constraint(s)
Variable types: 35514 continuous, 53093 integer (53093 binary)

Deterministic concurrent LP optimizer: primal simplex, dual simplex, and barrier
Showing barrier log only...

Root relaxation presolved: 97533 rows, 88607 columns, 1126421 nonzeros

Root barrier log...

Ordering time: 0.05s

Barrier statistics:
 Dense cols : 84
 AA' NZ     : 1.107e+06
 Factor NZ  : 3.467e+06 (roughly 100 MB of memory)
 Factor Ops : 1.353e+08 (less than 1 second per iteration)
 Threads    : 30

                  Objective                Residual
Iter       Primal          Dual         Primal    Dual     Compl     Time
   0  -6.63975674e+05  1.71729121e+09  1.10e+04 0.00e+00  8.06e+05     4s
   1  -5.81766092e+05  2.58785098e+09  1.21e+03 4.01e+01  1.80e+05     4s
   2  -2.90232616e+05  2.18302362e+09  1.21e+02 5.90e+00  2.58e+04     5s
   3  -2.96299018e+04  5.47099740e+08  1.20e+01 5.83e-01  3.52e+03     5s
   4  -2.96234771e+03  6.31365395e+07  1.19e+00 5.82e-02  3.68e+02     5s
   5  -2.95592718e+02  7.25740513e+06  1.19e-01 5.82e-03  3.97e+01     5s
   6  -2.89160280e+01  7.37705161e+05  1.19e-02 5.87e-04  3.98e+00     5s
   7  -2.23134435e+00  7.87974927e+04  1.18e-03 6.22e-05  4.24e-01     6s
   8   5.57862953e-01  1.35982928e+04  1.21e-04 1.07e-05  7.32e-02     6s
   9   9.56288571e-01  1.51314593e+03  6.32e-05 1.03e-06  8.09e-03     6s
  10   9.85839919e-01  1.54976002e+02  6.26e-06 1.04e-07  8.24e-04     6s
  11   9.98583003e-01  1.65422974e+01  6.21e-07 1.04e-08  8.31e-05     7s
  12   9.99858300e-01  2.55429963e+00  6.20e-08 1.04e-09  8.31e-06     7s
  13   9.99985829e-01  1.15689049e+00  6.15e-09 1.05e-10  8.38e-07     7s
  14   9.99998583e-01  1.01568905e+00  6.15e-10 1.05e-11  8.38e-08     7s
  15   9.99999858e-01  1.00158365e+00  6.10e-11 1.05e-12  8.46e-09     8s
  16   9.99999986e-01  1.00015836e+00  6.45e-12 1.05e-13  8.46e-10     8s
  17   9.99999999e-01  1.00001584e+00  7.96e-13 1.05e-14  8.46e-11     8s
  18   1.00000000e+00  1.00000158e+00  4.26e-13 1.05e-15  8.46e-12     9s
  19   1.00000000e+00  1.00000016e+00  4.55e-13 1.05e-16  8.46e-13     9s
  20   1.00000000e+00  1.00000002e+00  4.55e-13 1.05e-17  8.46e-14     9s

Barrier solved model in 20 iterations and 9.16 seconds (6.20 work units)
Optimal objective 1.00000000e+00


Root crossover log...

    5144 DPushes remaining with DInf 0.0000000e+00                 9s
       0 DPushes remaining with DInf 0.0000000e+00                 9s

   32740 PPushes remaining with PInf 0.0000000e+00                 9s
       0 PPushes remaining with PInf 0.0000000e+00                10s

  Push phase complete: Pinf 0.0000000e+00, Dinf 0.0000000e+00     10s


Root simplex log...

Iteration    Objective       Primal Inf.    Dual Inf.      Time
   32744    1.0000000e+00   0.000000e+00   0.000000e+00     10s
   32744    1.0000000e+00   0.000000e+00   0.000000e+00     10s
Concurrent spin time: 0.96s (can be avoided by choosing Method=3)

Solved with barrier

Root relaxation: objective 1.000000e+00, 32744 iterations, 7.49 seconds (4.33 work units)
Total elapsed time = 31.22s (DegenMoves)

    Nodes    |    Current Node    |     Objective Bounds      |     Work
 Expl Unexpl |  Obj  Depth IntInf | Incumbent    BestBd   Gap | It/Node Time

     0     0    1.00000    0 7011 -1390499.4    1.00000   100%     -   31s
     0     2    1.00000    0 7011 -1390499.4    1.00000   100%     -  138s
     1     4    1.00000    1 7010 -1390499.4    1.00000   100%  8837  144s
     3     8    1.00000    2 7009 -1390499.4    1.00000   100%  2947  185s
    15    32    1.00000    4 7007 -1390499.4    1.00000   100%   591  298s
    31    64    1.00000    5 7006 -1390499.4    1.00000   100%  2871  467s
H   35    64                    -1218699.539    1.00000   100%  2543  467s
H   42    64                    -27899.45652    1.00000   100%  3568  467s
H   54    64                       0.3913043    1.00000   156%  5055  468s
H   55    64                       0.4528986    1.00000   121%  5223  468s
    63    96    1.00000    6 7005    0.45290    1.00000   121%  5229 1274s
    95   128    1.00000    7 7004    0.45290    1.00000   121%  3535 1716s
   127   160    1.00000    8 7003    0.45290    1.00000   121%  2670 2361s
   159   192    1.00000    9 7001    0.45290    1.00000   121%  2159 2640s
   191   227    1.00000   10 7178    0.45290    1.00000   121%  1877 2715s
   226   259    1.00000   11 7323    0.45290    1.00000   121%  2811 3415s
   258   704    1.00000   12 7465    0.45290    1.00000   121%  2494 3600s

Explored 703 nodes (1092848 simplex iterations) in 3600.48 seconds (3604.73 work units)
Thread count was 32 (of 192 available processors)

Solution count 5: 0.452899 0.391304 -27899.5 ... -1.3905e+06

Time limit reached
Best objective 4.528985507246e-01, best bound 1.000000000000e+00, gap 120.8000%

User-callback calls 1865035, time in user-callback 10.55 sec
